p cnf 51 180
3 1 0
3 -2 0
-1 2 -3 0
-4 -1 0
-4 3 0
1 -3 4 0
-8 9 -10 0
8 -9 -10 0
-8 -9 10 0
8 9 10 0
11 7 0
11 -10 0
-7 10 -11 0
6 11 -12 0
-6 -11 -12 0
6 -11 12 0
-6 11 12 0
-13 -5 0
-13 12 0
5 -12 13 0
-14 1 -15 0
14 -1 -15 0
-14 -1 15 0
14 1 15 0
15 -3 -16 0
-15 3 -16 0
15 3 16 0
-15 -3 16 0
17 -7 0
17 16 0
7 -16 -17 0
9 3 -18 0
-9 -3 -18 0
9 -3 18 0
-9 3 18 0
-19 18 0
-19 -6 0
-18 6 19 0
20 19 0
20 -18 0
-19 18 -20 0
-19 20 -21 0
19 -20 -21 0
-19 -20 21 0
19 20 21 0
-17 -21 -22 0
17 21 -22 0
-17 21 22 0
17 -21 22 0
-23 -13 0
-23 22 0
13 -22 23 0
24 4 0
24 -23 0
-4 23 -24 0
25 -17 0
25 -15 0
17 15 -25 0
26 -20 0
26 -20 0
20 -26 0
-27 8 0
-27 6 0
-8 -6 27 0
-8 28 -29 0
8 -28 -29 0
-8 -28 29 0
8 28 29 0
30 27 0
30 -29 0
-27 29 -30 0
31 18 0
31 6 0
-18 -6 -31 0
-32 31 0
-32 19 0
-31 -19 32 0
-33 -30 0
-33 -32 0
30 32 33 0
-34 26 0
-34 -33 0
-26 33 34 0
35 -25 0
35 -34 0
25 34 -35 0
-24 -35 -36 0
24 35 -36 0
-24 35 36 0
24 -35 36 0
-2 14 -37 0
2 -14 -37 0
-2 -14 37 0
2 14 37 0
-38 -37 0
-38 9 0
37 -9 38 0
-39 -2 0
-39 -38 0
2 38 39 0
-36 -39 -40 0
36 39 -40 0
-36 39 40 0
36 -39 40 0
19 -14 -41 0
-19 14 -41 0
19 14 41 0
-19 -14 41 0
42 18 0
42 -20 0
-18 20 -42 0
-43 41 0
-43 42 0
-41 -42 43 0
44 -43 0
44 -16 0
43 16 -44 0
6 -45 -46 0
-6 45 -46 0
6 45 46 0
-6 -45 46 0
10 -38 -47 0
-10 38 -47 0
10 38 47 0
-10 -38 47 0
-48 47 0
-48 -17 0
-47 17 48 0
49 46 0
49 -48 0
-46 48 -49 0
-50 -44 0
-50 -49 0
44 49 50 0
40 50 -51 0
-40 -50 -51 0
40 -50 51 0
-40 50 51 0
-29 40 0
3 -20 -24 -27 40 0
44 -7 0
-2 37 -42 -51 -40 0
-6 48 42 -4 45 0
24 -32 -27 -3 -9 0
-29 39 33 22 0
17 38 -46 0
17 -20 47 48 0
31 9 0
17 -16 36 42 0
-25 15 0
-36 -26 44 8 -22 -38 0
48 10 36 2 0
-12 -3 -31 42 0
-18 -7 0
28 8 42 -44 38 -7 0
19 -45 6 0
47 -23 -24 12 -8 0
-19 -22 0
35 -3 46 36 -18 48 0
1 -8 25 44 35 0
23 37 0
31 33 -7 -34 -36 0
23 -46 -3 36 -50 0
-34 2 41 -45 0
-28 -18 30 0
-12 27 -4 33 0
-43 -16 -42 0
-30 2 48 -21 49 0
-10 35 18 0
47 32 2 0
21 -36 0
35 49 21 -37 -17 39 0
22 41 -27 0
14 -5 35 -16 0
40 -4 48 -15 -10 0
46 47 -38 -17 21 -43 0
-8 -24 -38 -39 21 0
39 38 3 0
-27 -42 -12 0
51 0
